c turning on binary mode checking
c parsing input formula with 259840 variables and 1039934 clauses
c finished parsing, read 23552206 bytes from proof file
c detected empty clause; start verification via backward checking
c 20853 of 1039934 clauses in core                            
c 27649 of 605756 lemmas in core using 293894 resolution steps
c 0 RAT lemmas in core; 2569 redundant literals in core lemmas
s VERIFIED
c verification time: 3.165 seconds
